36323 29755
22980 34407
63365 35747
37387 10409
16577 56175
8999 36277
44150 28255
62244 39467
20296 54318
48510 11946
13430 9775
62084 38686
60003 31247
61018 24375
25228 60713
14176 19008
36197 6841
3940 9350
30397 57339
39100 37561
38428 38700
13799 43947
57002 61821
59729 29545
13710 1485
23920 56975
49401 12755
4842 42171
7088 47536
45179 22073
51864 57989
40013 797
56974 30088
41839 1002
21878 52363
51625 10733
18407 60287
56651 47162
39691 145
65377 65361
24029 41165
24197 20200
60031 56202
38108 43615
51066 21664
38893 19669
601 7227
61775 12816
39731 2675
6792 240
25101 430
37083 31678
8074 17795
44308 58946
128 32170
60482 18191
53047 56636
55317 53451
38402 62359
2304 27152
2461 2300
10669 24369
1378 2536
44072 60320
26410 665
60837 40285
19657 21371
35647 10791
55125 23778
54119 13527
7764 9620
34270 16481
25920 2672
57103 5109
16847 38480
2156 23824
9658 42833
22305 20629
51164 51861
33942 54742
54316 49689
60387 20804
